1644835
12,1,54,13,65,20,48,2,45,27,17,9,58,68,35,51,62,39,37,53,31,22,14,52,33,57,18,10,44,50,28,36,8,15,59,16,63,4,47,24,61,3,21,38,67,64,7,43,46,34,55,26,66,11,6,41,30,25,29,60,23,49,19,5,40,32,56,42